\ SCIP STATISTICS
\   Problem name     : CapacitatedFacilityLocation-20-10
\   Variables        : 210 (210 binary, 0 integer, 0 implicit integer, 0 continuous)
\   Constraints      : 231
Minimize
 Obj: +878.882595021941 x0 +1240.75534829989 x1 +975.166651830752 x2 +1194.43371598016 x3 +1190.11602807489 x4
      +1178.90501871167 x5 +671.18837722546 x6 +1070.09676947362 x7 +1308.54980710912 x8 +916.852181379709 x9
      +34.8494482420617 x10 +116.186549560568 x11 +52.5362391068538 x12 +77.5891351395525 x13 +121.414137960406 x14
      +69.450195892753 x15 +55.9801534047255 x16 +83.4177600904196 x17 +57.2745772248381 x18 +76.3676185312826 x19
      +18.5219896854825 x20 +23.7185261248837 x21 +21.1968980958314 x22 +17.2409933792331 x23 +18.463559095753 x24
      +17.0212968312184 x25 +8.40008582452941 x26 +15.0516132455762 x27 +20.5318162991573 x28 +1.02599703380819 x29
      +107.498393924672 x30 +97.8464650977926 x31 +45.1372124913556 x32 +61.7378949122847 x33 +165.748517307259 x34
      +143.091661226968 x35 +102.463917158214 x36 +149.721782854452 x37 +45.2157927539678 x38 +112.292373464358 x39
      +21.6095763581786 x40 +29.5382187296023 x41 +29.1835589702374 x42 +25.3915509011398 x43 +12.3381047500387 x44
      +14.1010267092825 x45 +13.2991133481049 x46 +9.35449040339936 x47 +28.6620253401099 x48 +7.58413997312234 x49
      +117.480740558083 x50 +58.6113610939867 x51 +96.9094613018429 x52 +59.8947087076709 x53 +81.4966925617719 x54
      +114.866654672014 x55 +75.2051690778121 x56 +102.5497080556 x57 +90.8614718666266 x58 +48.0167322321805 x59
      +183.098278118271 x60 +67.0615166851045 x61 +137.172941012132 x62 +76.5283510024582 x63 +139.153455798228 x64
      +186.468637286602 x65 +122.34323079562 x66 +170.341650922907 x67 +127.178416852572 x68 +87.1697171132597 x69
      +50.4508722624337 x70 +19.3686361405637 x71 +24.7311453700868 x72 +15.0965321108405 x73 +57.3948027891675 x74
      +59.7255050963511 x75 +41.369091611432 x76 +59.2033294543022 x77 +22.2308165062219 x78 +39.7503951583969 x79
      +66.1231389846029 x80 +71.6993348967914 x81 +31.5623073572058 x82 +46.8249202647489 x83 +109.824062389869 x84
      +90.4619717832189 x85 +66.5341224554894 x86 +96.0701972043515 x87 +32.980118204692 x88 +74.9354466966177 x89
      +213.880620949842 x90 +83.8832491470598 x91 +185.257109795273 x92 +126.621443688326 x93 +106.568241348627 x94
      +198.019622565423 x95 +152.789569785054 x96 +173.089267977176 x97 +175.817556856897 x98 +108.561673924059 x99
      +138.263686950784 x100 +109.0025324168 x101 +85.0305346853961 x102 +43.2113763394787 x103 +172.229364310293 x104
      +164.437910831663 x105 +83.5488665830459 x106 +160.751139610182 x107 +76.5441885738337 x108 +72.7969643636614 x109
      +60.4664734897602 x110 +10.8452184831264 x111 +45.9398930467178 x112 +28.7403372290682 x113 +40.1982764983499 x114
      +60.2007612782837 x115 +44.7153505253926 x116 +54.9079255347339 x117 +43.0557781665359 x118 +34.8270308208523 x119
      +128.157114536095 x120 +68.0152159045117 x121 +56.9058736170013 x122 +44.7669437631932 x123 +160.639415977098 x124
      +157.343117458983 x125 +109.474139888784 x126 +158.617458199296 x127 +51.5947638722203 x128 +110.000202646704 x129
      +91.9190467043327 x130 +72.8566244516862 x131 +71.8568344382617 x132 +44.1530530220969 x133 +95.7497647202018 x134
      +99.4235835280949 x135 +51.3940371004675 x136 +93.3900049039836 x137 +66.8563256948451 x138 +34.4209432088842 x139
      +155.33358203403 x140 +151.877057935439 x141 +184.015654649899 x142 +154.166301124258 x143 +14.3790566913661 x144
      +110.750495526829 x145 +112.569222517788 x146 +80.5317385201126 x147 +179.776605062211 x148 +77.5773746178462 x149
      +37.2061351545939 x150 +52.8728363626845 x151 +42.6917606162011 x152 +35.7091063762289 x153 +44.9805674934911 x154
      +36.9371087930881 x155 +14.7944663379303 x156 +34.3103516633966 x157 +41.4343053319202 x158 +5.03371311120811 x159
      +221.954736118149 x160 +227.089987117475 x161 +268.936416760203 x162 +234.622948361806 x163 +39.2695424315199 x164
      +155.594850058078 x165 +177.122317916788 x166 +117.210772235352 x167 +264.335995814818 x168 +139.489026852838 x169
      +10.9425430607166 x170 +126.159350621772 x171 +67.574182361796 x172 +86.600723215968 x173 +111.376173731567 x174
      +45.9662799900388 x175 +41.4976361636634 x176 +63.0365534533379 x177 +71.3296147815585 x178 +64.7264872037928 x179
      +93.2199855549558 x180 +96.8247411750648 x181 +106.752182217382 x182 +85.1177049003741 x183 +50.8449577247434 x184
      +74.0756124693964 x185 +54.4440493791395 x186 +58.1265772717013 x187 +103.436386049717 x188 +23.2304107279339 x189
      +105.252062380695 x190 +109.880008940876 x191 +52.7597848665014 x192 +74.1424149838525 x193 +169.661280728478 x194
      +141.673688134733 x195 +105.571781472706 x196 +149.918065792824 x197 +54.5610360298844 x198 +117.720521288931 x199
      +20.9723088862102 x200 +17.9801836016781 x201 +11.2379591836521 x202 +5.730123361981 x203 +28.81640062163 x204
      +26.1783511662698 x205 +13.1597809787018 x206 +26.0778347454863 x207 +9.9146122023743 x208 +12.6810500436492 x209
Subject to
 c0: +1 x10 +1 x11 +1 x12 +1 x13 +1 x14 +1 x15 +1 x16 +1 x17 +1 x18 +1 x19 >= +1
 c1: +1 x20 +1 x21 +1 x22 +1 x23 +1 x24 +1 x25 +1 x26 +1 x27 +1 x28 +1 x29 >= +1
 c2: +1 x30 +1 x31 +1 x32 +1 x33 +1 x34 +1 x35 +1 x36 +1 x37 +1 x38 +1 x39 >= +1
 c3: +1 x40 +1 x41 +1 x42 +1 x43 +1 x44 +1 x45 +1 x46 +1 x47 +1 x48 +1 x49 >= +1
 c4: +1 x50 +1 x51 +1 x52 +1 x53 +1 x54 +1 x55 +1 x56 +1 x57 +1 x58 +1 x59 >= +1
 c5: +1 x60 +1 x61 +1 x62 +1 x63 +1 x64 +1 x65 +1 x66 +1 x67 +1 x68 +1 x69 >= +1
 c6: +1 x70 +1 x71 +1 x72 +1 x73 +1 x74 +1 x75 +1 x76 +1 x77 +1 x78 +1 x79 >= +1
 c7: +1 x80 +1 x81 +1 x82 +1 x83 +1 x84 +1 x85 +1 x86 +1 x87 +1 x88 +1 x89 >= +1
 c8: +1 x90 +1 x91 +1 x92 +1 x93 +1 x94 +1 x95 +1 x96 +1 x97 +1 x98 +1 x99 >= +1
 c9: +1 x100 +1 x101 +1 x102 +1 x103 +1 x104 +1 x105 +1 x106 +1 x107 +1 x108 +1 x109 >= +1
 c10: +1 x110 +1 x111 +1 x112 +1 x113 +1 x114 +1 x115 +1 x116 +1 x117 +1 x118 +1 x119 >= +1
 c11: +1 x120 +1 x121 +1 x122 +1 x123 +1 x124 +1 x125 +1 x126 +1 x127 +1 x128 +1 x129 >= +1
 c12: +1 x130 +1 x131 +1 x132 +1 x133 +1 x134 +1 x135 +1 x136 +1 x137 +1 x138 +1 x139 >= +1
 c13: +1 x140 +1 x141 +1 x142 +1 x143 +1 x144 +1 x145 +1 x146 +1 x147 +1 x148 +1 x149 >= +1
 c14: +1 x150 +1 x151 +1 x152 +1 x153 +1 x154 +1 x155 +1 x156 +1 x157 +1 x158 +1 x159 >= +1
 c15: +1 x160 +1 x161 +1 x162 +1 x163 +1 x164 +1 x165 +1 x166 +1 x167 +1 x168 +1 x169 >= +1
 c16: +1 x170 +1 x171 +1 x172 +1 x173 +1 x174 +1 x175 +1 x176 +1 x177 +1 x178 +1 x179 >= +1
 c17: +1 x180 +1 x181 +1 x182 +1 x183 +1 x184 +1 x185 +1 x186 +1 x187 +1 x188 +1 x189 >= +1
 c18: +1 x190 +1 x191 +1 x192 +1 x193 +1 x194 +1 x195 +1 x196 +1 x197 +1 x198 +1 x199 >= +1
 c19: +1 x200 +1 x201 +1 x202 +1 x203 +1 x204 +1 x205 +1 x206 +1 x207 +1 x208 +1 x209 >= +1
 c20: +13 x10 +5 x20 +16 x30 +5 x40 +21 x50 +31 x60 +7 x70 +10 x80 +30 x90 +32 x100 +8 x110 +18 x120 +21 x130
  +25 x140 +11 x150 +30 x160 +15 x170 +20 x180 +15 x190 +5 x200 -105 x0 <= +0
 c21: +13 x11 +5 x21 +16 x31 +5 x41 +21 x51 +31 x61 +7 x71 +10 x81 +30 x91 +32 x101 +8 x111 +18 x121 +21 x131
  +25 x141 +11 x151 +30 x161 +15 x171 +20 x181 +15 x191 +5 x201 -221 x1 <= +0
 c22: +13 x12 +5 x22 +16 x32 +5 x42 +21 x52 +31 x62 +7 x72 +10 x82 +30 x92 +32 x102 +8 x112 +18 x122 +21 x132
  +25 x142 +11 x152 +30 x162 +15 x172 +20 x182 +15 x192 +5 x202 -138 x2 <= +0
 c23: +13 x13 +5 x23 +16 x33 +5 x43 +21 x53 +31 x63 +7 x73 +10 x83 +30 x93 +32 x103 +8 x113 +18 x123 +21 x133
  +25 x143 +11 x153 +30 x163 +15 x173 +20 x183 +15 x193 +5 x203 -193 x3 <= +0
 c24: +13 x14 +5 x24 +16 x34 +5 x44 +21 x54 +31 x64 +7 x74 +10 x84 +30 x94 +32 x104 +8 x114 +18 x124 +21 x134
  +25 x144 +11 x154 +30 x164 +15 x174 +20 x184 +15 x194 +5 x204 -221 x4 <= +0
 c25: +13 x15 +5 x25 +16 x35 +5 x45 +21 x55 +31 x65 +7 x75 +10 x85 +30 x95 +32 x105 +8 x115 +18 x125 +21 x135
  +25 x145 +11 x155 +30 x165 +15 x175 +20 x185 +15 x195 +5 x205 -200 x5 <= +0
 c26: +13 x16 +5 x26 +16 x36 +5 x46 +21 x56 +31 x66 +7 x76 +10 x86 +30 x96 +32 x106 +8 x116 +18 x126 +21 x136
  +25 x146 +11 x156 +30 x166 +15 x176 +20 x186 +15 x196 +5 x206 -62 x6 <= +0
 c27: +13 x17 +5 x27 +16 x37 +5 x47 +21 x57 +31 x67 +7 x77 +10 x87 +30 x97 +32 x107 +8 x117 +18 x127 +21 x137
  +25 x147 +11 x157 +30 x167 +15 x177 +20 x187 +15 x197 +5 x207 -161 x7 <= +0
 c28: +13 x18 +5 x28 +16 x38 +5 x48 +21 x58 +31 x68 +7 x78 +10 x88 +30 x98 +32 x108 +8 x118 +18 x128 +21 x138
  +25 x148 +11 x158 +30 x168 +15 x178 +20 x188 +15 x198 +5 x208 -267 x8 <= +0
 c29: +13 x19 +5 x29 +16 x39 +5 x49 +21 x59 +31 x69 +7 x79 +10 x89 +30 x99 +32 x109 +8 x119 +18 x129 +21 x139
  +25 x149 +11 x159 +30 x169 +15 x179 +20 x189 +15 x199 +5 x209 -120 x9 <= +0
 c30: +105 x0 +221 x1 +138 x2 +193 x3 +221 x4 +200 x5 +62 x6 +161 x7 +267 x8 +120 x9 >= +338
 c31: +1 x10 -1 x0 <= +0
 c32: +1 x11 -1 x1 <= +0
 c33: +1 x12 -1 x2 <= +0
 c34: +1 x13 -1 x3 <= +0
 c35: +1 x14 -1 x4 <= +0
 c36: +1 x15 -1 x5 <= +0
 c37: +1 x16 -1 x6 <= +0
 c38: +1 x17 -1 x7 <= +0
 c39: +1 x18 -1 x8 <= +0
 c40: +1 x19 -1 x9 <= +0
 c41: +1 x20 -1 x0 <= +0
 c42: +1 x21 -1 x1 <= +0
 c43: +1 x22 -1 x2 <= +0
 c44: +1 x23 -1 x3 <= +0
 c45: +1 x24 -1 x4 <= +0
 c46: +1 x25 -1 x5 <= +0
 c47: +1 x26 -1 x6 <= +0
 c48: +1 x27 -1 x7 <= +0
 c49: +1 x28 -1 x8 <= +0
 c50: +1 x29 -1 x9 <= +0
 c51: +1 x30 -1 x0 <= +0
 c52: +1 x31 -1 x1 <= +0
 c53: +1 x32 -1 x2 <= +0
 c54: +1 x33 -1 x3 <= +0
 c55: +1 x34 -1 x4 <= +0
 c56: +1 x35 -1 x5 <= +0
 c57: +1 x36 -1 x6 <= +0
 c58: +1 x37 -1 x7 <= +0
 c59: +1 x38 -1 x8 <= +0
 c60: +1 x39 -1 x9 <= +0
 c61: +1 x40 -1 x0 <= +0
 c62: +1 x41 -1 x1 <= +0
 c63: +1 x42 -1 x2 <= +0
 c64: +1 x43 -1 x3 <= +0
 c65: +1 x44 -1 x4 <= +0
 c66: +1 x45 -1 x5 <= +0
 c67: +1 x46 -1 x6 <= +0
 c68: +1 x47 -1 x7 <= +0
 c69: +1 x48 -1 x8 <= +0
 c70: +1 x49 -1 x9 <= +0
 c71: +1 x50 -1 x0 <= +0
 c72: +1 x51 -1 x1 <= +0
 c73: +1 x52 -1 x2 <= +0
 c74: +1 x53 -1 x3 <= +0
 c75: +1 x54 -1 x4 <= +0
 c76: +1 x55 -1 x5 <= +0
 c77: +1 x56 -1 x6 <= +0
 c78: +1 x57 -1 x7 <= +0
 c79: +1 x58 -1 x8 <= +0
 c80: +1 x59 -1 x9 <= +0
 c81: +1 x60 -1 x0 <= +0
 c82: +1 x61 -1 x1 <= +0
 c83: +1 x62 -1 x2 <= +0
 c84: +1 x63 -1 x3 <= +0
 c85: +1 x64 -1 x4 <= +0
 c86: +1 x65 -1 x5 <= +0
 c87: +1 x66 -1 x6 <= +0
 c88: +1 x67 -1 x7 <= +0
 c89: +1 x68 -1 x8 <= +0
 c90: +1 x69 -1 x9 <= +0
 c91: +1 x70 -1 x0 <= +0
 c92: +1 x71 -1 x1 <= +0
 c93: +1 x72 -1 x2 <= +0
 c94: +1 x73 -1 x3 <= +0
 c95: +1 x74 -1 x4 <= +0
 c96: +1 x75 -1 x5 <= +0
 c97: +1 x76 -1 x6 <= +0
 c98: +1 x77 -1 x7 <= +0
 c99: +1 x78 -1 x8 <= +0
 c100: +1 x79 -1 x9 <= +0
 c101: +1 x80 -1 x0 <= +0
 c102: +1 x81 -1 x1 <= +0
 c103: +1 x82 -1 x2 <= +0
 c104: +1 x83 -1 x3 <= +0
 c105: +1 x84 -1 x4 <= +0
 c106: +1 x85 -1 x5 <= +0
 c107: +1 x86 -1 x6 <= +0
 c108: +1 x87 -1 x7 <= +0
 c109: +1 x88 -1 x8 <= +0
 c110: +1 x89 -1 x9 <= +0
 c111: +1 x90 -1 x0 <= +0
 c112: +1 x91 -1 x1 <= +0
 c113: +1 x92 -1 x2 <= +0
 c114: +1 x93 -1 x3 <= +0
 c115: +1 x94 -1 x4 <= +0
 c116: +1 x95 -1 x5 <= +0
 c117: +1 x96 -1 x6 <= +0
 c118: +1 x97 -1 x7 <= +0
 c119: +1 x98 -1 x8 <= +0
 c120: +1 x99 -1 x9 <= +0
 c121: +1 x100 -1 x0 <= +0
 c122: +1 x101 -1 x1 <= +0
 c123: +1 x102 -1 x2 <= +0
 c124: +1 x103 -1 x3 <= +0
 c125: +1 x104 -1 x4 <= +0
 c126: +1 x105 -1 x5 <= +0
 c127: +1 x106 -1 x6 <= +0
 c128: +1 x107 -1 x7 <= +0
 c129: +1 x108 -1 x8 <= +0
 c130: +1 x109 -1 x9 <= +0
 c131: +1 x110 -1 x0 <= +0
 c132: +1 x111 -1 x1 <= +0
 c133: +1 x112 -1 x2 <= +0
 c134: +1 x113 -1 x3 <= +0
 c135: +1 x114 -1 x4 <= +0
 c136: +1 x115 -1 x5 <= +0
 c137: +1 x116 -1 x6 <= +0
 c138: +1 x117 -1 x7 <= +0
 c139: +1 x118 -1 x8 <= +0
 c140: +1 x119 -1 x9 <= +0
 c141: +1 x120 -1 x0 <= +0
 c142: +1 x121 -1 x1 <= +0
 c143: +1 x122 -1 x2 <= +0
 c144: +1 x123 -1 x3 <= +0
 c145: +1 x124 -1 x4 <= +0
 c146: +1 x125 -1 x5 <= +0
 c147: +1 x126 -1 x6 <= +0
 c148: +1 x127 -1 x7 <= +0
 c149: +1 x128 -1 x8 <= +0
 c150: +1 x129 -1 x9 <= +0
 c151: +1 x130 -1 x0 <= +0
 c152: +1 x131 -1 x1 <= +0
 c153: +1 x132 -1 x2 <= +0
 c154: +1 x133 -1 x3 <= +0
 c155: +1 x134 -1 x4 <= +0
 c156: +1 x135 -1 x5 <= +0
 c157: +1 x136 -1 x6 <= +0
 c158: +1 x137 -1 x7 <= +0
 c159: +1 x138 -1 x8 <= +0
 c160: +1 x139 -1 x9 <= +0
 c161: +1 x140 -1 x0 <= +0
 c162: +1 x141 -1 x1 <= +0
 c163: +1 x142 -1 x2 <= +0
 c164: +1 x143 -1 x3 <= +0
 c165: +1 x144 -1 x4 <= +0
 c166: +1 x145 -1 x5 <= +0
 c167: +1 x146 -1 x6 <= +0
 c168: +1 x147 -1 x7 <= +0
 c169: +1 x148 -1 x8 <= +0
 c170: +1 x149 -1 x9 <= +0
 c171: +1 x150 -1 x0 <= +0
 c172: +1 x151 -1 x1 <= +0
 c173: +1 x152 -1 x2 <= +0
 c174: +1 x153 -1 x3 <= +0
 c175: +1 x154 -1 x4 <= +0
 c176: +1 x155 -1 x5 <= +0
 c177: +1 x156 -1 x6 <= +0
 c178: +1 x157 -1 x7 <= +0
 c179: +1 x158 -1 x8 <= +0
 c180: +1 x159 -1 x9 <= +0
 c181: +1 x160 -1 x0 <= +0
 c182: +1 x161 -1 x1 <= +0
 c183: +1 x162 -1 x2 <= +0
 c184: +1 x163 -1 x3 <= +0
 c185: +1 x164 -1 x4 <= +0
 c186: +1 x165 -1 x5 <= +0
 c187: +1 x166 -1 x6 <= +0
 c188: +1 x167 -1 x7 <= +0
 c189: +1 x168 -1 x8 <= +0
 c190: +1 x169 -1 x9 <= +0
 c191: +1 x170 -1 x0 <= +0
 c192: +1 x171 -1 x1 <= +0
 c193: +1 x172 -1 x2 <= +0
 c194: +1 x173 -1 x3 <= +0
 c195: +1 x174 -1 x4 <= +0
 c196: +1 x175 -1 x5 <= +0
 c197: +1 x176 -1 x6 <= +0
 c198: +1 x177 -1 x7 <= +0
 c199: +1 x178 -1 x8 <= +0
 c200: +1 x179 -1 x9 <= +0
 c201: +1 x180 -1 x0 <= +0
 c202: +1 x181 -1 x1 <= +0
 c203: +1 x182 -1 x2 <= +0
 c204: +1 x183 -1 x3 <= +0
 c205: +1 x184 -1 x4 <= +0
 c206: +1 x185 -1 x5 <= +0
 c207: +1 x186 -1 x6 <= +0
 c208: +1 x187 -1 x7 <= +0
 c209: +1 x188 -1 x8 <= +0
 c210: +1 x189 -1 x9 <= +0
 c211: +1 x190 -1 x0 <= +0
 c212: +1 x191 -1 x1 <= +0
 c213: +1 x192 -1 x2 <= +0
 c214: +1 x193 -1 x3 <= +0
 c215: +1 x194 -1 x4 <= +0
 c216: +1 x195 -1 x5 <= +0
 c217: +1 x196 -1 x6 <= +0
 c218: +1 x197 -1 x7 <= +0
 c219: +1 x198 -1 x8 <= +0
 c220: +1 x199 -1 x9 <= +0
 c221: +1 x200 -1 x0 <= +0
 c222: +1 x201 -1 x1 <= +0
 c223: +1 x202 -1 x2 <= +0
 c224: +1 x203 -1 x3 <= +0
 c225: +1 x204 -1 x4 <= +0
 c226: +1 x205 -1 x5 <= +0
 c227: +1 x206 -1 x6 <= +0
 c228: +1 x207 -1 x7 <= +0
 c229: +1 x208 -1 x8 <= +0
 c230: +1 x209 -1 x9 <= +0
Bounds
 0 <= x0 <= 1
 0 <= x1 <= 1
 0 <= x2 <= 1
 0 <= x3 <= 1
 0 <= x4 <= 1
 0 <= x5 <= 1
 0 <= x6 <= 1
 0 <= x7 <= 1
 0 <= x8 <= 1
 0 <= x9 <= 1
 0 <= x10 <= 1
 0 <= x11 <= 1
 0 <= x12 <= 1
 0 <= x13 <= 1
 0 <= x14 <= 1
 0 <= x15 <= 1
 0 <= x16 <= 1
 0 <= x17 <= 1
 0 <= x18 <= 1
 0 <= x19 <= 1
 0 <= x20 <= 1
 0 <= x21 <= 1
 0 <= x22 <= 1
 0 <= x23 <= 1
 0 <= x24 <= 1
 0 <= x25 <= 1
 0 <= x26 <= 1
 0 <= x27 <= 1
 0 <= x28 <= 1
 0 <= x29 <= 1
 0 <= x30 <= 1
 0 <= x31 <= 1
 0 <= x32 <= 1
 0 <= x33 <= 1
 0 <= x34 <= 1
 0 <= x35 <= 1
 0 <= x36 <= 1
 0 <= x37 <= 1
 0 <= x38 <= 1
 0 <= x39 <= 1
 0 <= x40 <= 1
 0 <= x41 <= 1
 0 <= x42 <= 1
 0 <= x43 <= 1
 0 <= x44 <= 1
 0 <= x45 <= 1
 0 <= x46 <= 1
 0 <= x47 <= 1
 0 <= x48 <= 1
 0 <= x49 <= 1
 0 <= x50 <= 1
 0 <= x51 <= 1
 0 <= x52 <= 1
 0 <= x53 <= 1
 0 <= x54 <= 1
 0 <= x55 <= 1
 0 <= x56 <= 1
 0 <= x57 <= 1
 0 <= x58 <= 1
 0 <= x59 <= 1
 0 <= x60 <= 1
 0 <= x61 <= 1
 0 <= x62 <= 1
 0 <= x63 <= 1
 0 <= x64 <= 1
 0 <= x65 <= 1
 0 <= x66 <= 1
 0 <= x67 <= 1
 0 <= x68 <= 1
 0 <= x69 <= 1
 0 <= x70 <= 1
 0 <= x71 <= 1
 0 <= x72 <= 1
 0 <= x73 <= 1
 0 <= x74 <= 1
 0 <= x75 <= 1
 0 <= x76 <= 1
 0 <= x77 <= 1
 0 <= x78 <= 1
 0 <= x79 <= 1
 0 <= x80 <= 1
 0 <= x81 <= 1
 0 <= x82 <= 1
 0 <= x83 <= 1
 0 <= x84 <= 1
 0 <= x85 <= 1
 0 <= x86 <= 1
 0 <= x87 <= 1
 0 <= x88 <= 1
 0 <= x89 <= 1
 0 <= x90 <= 1
 0 <= x91 <= 1
 0 <= x92 <= 1
 0 <= x93 <= 1
 0 <= x94 <= 1
 0 <= x95 <= 1
 0 <= x96 <= 1
 0 <= x97 <= 1
 0 <= x98 <= 1
 0 <= x99 <= 1
 0 <= x100 <= 1
 0 <= x101 <= 1
 0 <= x102 <= 1
 0 <= x103 <= 1
 0 <= x104 <= 1
 0 <= x105 <= 1
 0 <= x106 <= 1
 0 <= x107 <= 1
 0 <= x108 <= 1
 0 <= x109 <= 1
 0 <= x110 <= 1
 0 <= x111 <= 1
 0 <= x112 <= 1
 0 <= x113 <= 1
 0 <= x114 <= 1
 0 <= x115 <= 1
 0 <= x116 <= 1
 0 <= x117 <= 1
 0 <= x118 <= 1
 0 <= x119 <= 1
 0 <= x120 <= 1
 0 <= x121 <= 1
 0 <= x122 <= 1
 0 <= x123 <= 1
 0 <= x124 <= 1
 0 <= x125 <= 1
 0 <= x126 <= 1
 0 <= x127 <= 1
 0 <= x128 <= 1
 0 <= x129 <= 1
 0 <= x130 <= 1
 0 <= x131 <= 1
 0 <= x132 <= 1
 0 <= x133 <= 1
 0 <= x134 <= 1
 0 <= x135 <= 1
 0 <= x136 <= 1
 0 <= x137 <= 1
 0 <= x138 <= 1
 0 <= x139 <= 1
 0 <= x140 <= 1
 0 <= x141 <= 1
 0 <= x142 <= 1
 0 <= x143 <= 1
 0 <= x144 <= 1
 0 <= x145 <= 1
 0 <= x146 <= 1
 0 <= x147 <= 1
 0 <= x148 <= 1
 0 <= x149 <= 1
 0 <= x150 <= 1
 0 <= x151 <= 1
 0 <= x152 <= 1
 0 <= x153 <= 1
 0 <= x154 <= 1
 0 <= x155 <= 1
 0 <= x156 <= 1
 0 <= x157 <= 1
 0 <= x158 <= 1
 0 <= x159 <= 1
 0 <= x160 <= 1
 0 <= x161 <= 1
 0 <= x162 <= 1
 0 <= x163 <= 1
 0 <= x164 <= 1
 0 <= x165 <= 1
 0 <= x166 <= 1
 0 <= x167 <= 1
 0 <= x168 <= 1
 0 <= x169 <= 1
 0 <= x170 <= 1
 0 <= x171 <= 1
 0 <= x172 <= 1
 0 <= x173 <= 1
 0 <= x174 <= 1
 0 <= x175 <= 1
 0 <= x176 <= 1
 0 <= x177 <= 1
 0 <= x178 <= 1
 0 <= x179 <= 1
 0 <= x180 <= 1
 0 <= x181 <= 1
 0 <= x182 <= 1
 0 <= x183 <= 1
 0 <= x184 <= 1
 0 <= x185 <= 1
 0 <= x186 <= 1
 0 <= x187 <= 1
 0 <= x188 <= 1
 0 <= x189 <= 1
 0 <= x190 <= 1
 0 <= x191 <= 1
 0 <= x192 <= 1
 0 <= x193 <= 1
 0 <= x194 <= 1
 0 <= x195 <= 1
 0 <= x196 <= 1
 0 <= x197 <= 1
 0 <= x198 <= 1
 0 <= x199 <= 1
 0 <= x200 <= 1
 0 <= x201 <= 1
 0 <= x202 <= 1
 0 <= x203 <= 1
 0 <= x204 <= 1
 0 <= x205 <= 1
 0 <= x206 <= 1
 0 <= x207 <= 1
 0 <= x208 <= 1
 0 <= x209 <= 1
Binaries
 x0 x1 x2 x3 x4 x5 x6 x7 x8 x9 x10 x11 x12 x13 x14 x15 x16 x17 x18 x19 x20 x21 x22 x23 x24 x25 x26 x27
 x28 x29 x30 x31 x32 x33 x34 x35 x36 x37 x38 x39 x40 x41 x42 x43 x44 x45 x46 x47 x48 x49 x50 x51 x52 x53
 x54 x55 x56 x57 x58 x59 x60 x61 x62 x63 x64 x65 x66 x67 x68 x69 x70 x71 x72 x73 x74 x75 x76 x77 x78 x79
 x80 x81 x82 x83 x84 x85 x86 x87 x88 x89 x90 x91 x92 x93 x94 x95 x96 x97 x98 x99 x100 x101 x102 x103 x104
 x105 x106 x107 x108 x109 x110 x111 x112 x113 x114 x115 x116 x117 x118 x119 x120 x121 x122 x123 x124 x125
 x126 x127 x128 x129 x130 x131 x132 x133 x134 x135 x136 x137 x138 x139 x140 x141 x142 x143 x144 x145 x146
 x147 x148 x149 x150 x151 x152 x153 x154 x155 x156 x157 x158 x159 x160 x161 x162 x163 x164 x165 x166 x167
 x168 x169 x170 x171 x172 x173 x174 x175 x176 x177 x178 x179 x180 x181 x182 x183 x184 x185 x186 x187 x188
 x189 x190 x191 x192 x193 x194 x195 x196 x197 x198 x199 x200 x201 x202 x203 x204 x205 x206 x207 x208 x209
End
